LibMLKEM/why3-cvc5/mlkem.adb_819_21_index_check_1.smt2
;; produced by cvc5.drv ;;
(set-logic ALL)
(set-info :smt-lib-version 2.6)
;;; generated by SMT-LIB2 driver
;;; SMT-LIB2 driver: bit-vectors, common part
;;; SMT-LIB2: integer arithmetic
;; "pow2"
(declare-fun pow2 (Int) Int)

(declare-const two_power_size_minus_one Int)

;; "two_power_size_minus_one_val"
(assert (= two_power_size_minus_one (pow2 (- 8 1))))

;; "min"
(define-fun min ((x Int) (y Int)) Int
  (ite (<= x y) x y))

;; "max"
(define-fun max ((x Int) (y Int)) Int
  (ite (<= x y) y x))

;; "Min_r"
(assert (forall ((x Int) (y Int)) (=> (<= y x) (= (min x y) y))))

;; "Max_l"
(assert (forall ((x Int) (y Int)) (=> (<= y x) (= (max x y) x))))

;; "Min_comm"
(assert (forall ((x Int) (y Int)) (= (min x y) (min y x))))

;; "Max_comm"
(assert (forall ((x Int) (y Int)) (= (max x y) (max y x))))

;; "Min_assoc"
(assert
  (forall ((x Int) (y Int) (z Int)) (= (min (min x y) z) (min x (min y z)))))

;; "Max_assoc"
(assert
  (forall ((x Int) (y Int) (z Int)) (= (max (max x y) z) (max x (max y z)))))

(declare-sort byte 0)

;; "to_rep"
(declare-fun to_rep (byte) (_ BitVec 8))

;; "of_rep"
(declare-fun of_rep ((_ BitVec 8)) byte)

;; "inversion_axiom"
(assert
  (forall ((x byte)) (! (= (of_rep (to_rep x)) x) :pattern ((to_rep x)) )))

;; "range_axiom"
(assert true)

;; "coerce_axiom"
(assert
  (forall ((x (_ BitVec 8)))
    (! (= (to_rep (of_rep x)) x) :pattern ((to_rep (of_rep x))) )))

(declare-sort map1 0)

;; "has_bounds"
(declare-fun has_bounds (map1
  Int
  Int) Bool)

;; "get"
(declare-fun get (map1
  Int) byte)

;; "slide"
(declare-fun slide (map1
  Int
  Int) map1)

;; "slide_eq"
(assert
  (forall ((a map1) (first Int))
    (! (= (slide a first first) a) :pattern ((slide a first first)) )))

;; "slide_def"
(assert
  (forall ((a map1) (old_first Int) (new_first Int))
    (! (and
         (forall ((i Int))
           (! (= (get (slide a old_first new_first) i) (get
                                                         a
                                                         (- i (- new_first old_first)))) :pattern (
           (get
             (slide a old_first new_first)
             i)) ))
         (forall ((new_last Int))
           (! (=>
                (has_bounds a old_first (- new_last (- new_first old_first)))
                (has_bounds (slide a old_first new_first) new_first new_last)) :pattern (
           (has_bounds
             (slide a old_first new_first)
             new_first
             new_last)) ))) :pattern ((slide a old_first new_first)) )))

(declare-datatypes ((byte__init_wrapper 0))
  (((byte__init_wrapperqtmk (rec__value byte)(us_attr__init Bool)))))

(declare-sort map2 0)

;; "has_bounds"
(declare-fun has_bounds1 (map2
  Int
  Int) Bool)

;; "get"
(declare-fun get1 (map2
  Int) byte__init_wrapper)

;; "slice"
(declare-fun slice (map2
  Int
  Int) map2)

;; "slice_eq"
(assert
  (forall ((a map2) (f Int) (l Int))
    (! (=> (has_bounds1 a f l) (= (slice a f l) a)) :pattern ((slice a f l)
    (has_bounds1 a f l)) )))

;; "slice_slice"
(assert
  (forall ((a map2) (f1 Int) (l1 Int) (f2 Int) (l2 Int))
    (! (=>
         (and (<= f1 f2) (<= l2 l1))
         (= (slice (slice a f1 l1) f2 l2) (slice a f2 l2))) :pattern (
    (slice
      (slice a f1 l1)
      f2
      l2)) )))

;; "slice_def"
(assert
  (forall ((a map2) (f Int) (l Int))
    (! (forall ((i Int))
         (! (=>
              (and (<= f i) (<= i l))
              (= (get1 (slice a f l) i) (get1 a i))) :pattern ((get1
                                                                 (slice
                                                                   a
                                                                   f
                                                                   l)
                                                                 i)) :pattern (
         (get1
           a
           i)) )) :pattern ((slice a f l)) )))

;; "slice_has_bounds"
(assert
  (forall ((a map2) (f Int) (l Int))
    (! (has_bounds1 (slice a f l) f l) :pattern ((has_bounds1
                                                   (slice a f l)
                                                   f
                                                   l)) )))

(declare-const two_power_size_minus_one1 Int)

;; "two_power_size_minus_one_val"
(assert (= two_power_size_minus_one1 (pow2 (- 16 1))))

(declare-sort udu 0)

;; "in_range"
(define-fun in_range ((x (_ BitVec 16))) Bool
  (and (bvule #x0000 x) (bvule x #x03FF)))

;; "to_rep"
(declare-fun to_rep1 (udu) (_ BitVec 16))

;; "of_rep"
(declare-fun of_rep1 ((_ BitVec 16)) udu)

;; "inversion_axiom"
(assert
  (forall ((x udu)) (! (= (of_rep1 (to_rep1 x)) x) :pattern ((to_rep1 x)) )))

;; "range_axiom"
(assert
  (forall ((x udu)) (! (in_range (to_rep1 x)) :pattern ((to_rep1 x)) )))

;; "coerce_axiom"
(assert
  (forall ((x (_ BitVec 16)))
    (! (let ((y (bvurem x #x0400)))
         (=> (in_range y) (= (to_rep1 (of_rep1 x)) y))) :pattern ((to_rep1
                                                                    (of_rep1
                                                                    x))) )))

(declare-sort map3 0)

;; "has_bounds"
(declare-fun has_bounds2 (map3
  Int
  Int) Bool)

;; "byteencodedu"
(declare-fun byteencodedu (map3) map1)

;; "byteencodedu__function_guard"
(declare-fun byteencodedu__function_guard (map1
  map3) Bool)

(declare-sort map4 0)

;; "has_bounds"
(declare-fun has_bounds3 (map4
  Int
  Int) Bool)

;; "get"
(declare-fun get2 (map4
  Int) map3)

(declare-const f map4)

(declare-const c Int)

;; "in_range"
(define-fun in_range1 ((x Int)) Bool
  (and (<= (- 2147483648) x) (<= x 2147483647)))

;; "convert"
(declare-fun convert (map1) map2)

;; "convert__def"
(assert
  (forall ((a map1))
    (let ((b (convert a)))
      (forall ((temp___170 Int))
        (and
          (= (us_attr__init
               (byte__init_wrapperqtmk
                 (of_rep (to_rep (get a temp___170)))
                 true)) (us_attr__init (get1 b temp___170)))
          (= (to_rep
               (rec__value
                 (byte__init_wrapperqtmk
                   (of_rep (to_rep (get a temp___170)))
                   true))) (to_rep (rec__value (get1 b temp___170)))))))))

;; "dynamic_invariant"
(define-fun dynamic_invariant ((temp___expr_1655 map4) (temp___is_init_1651 Bool) (temp___skip_constant_1652 Bool) (temp___do_toplevel_1653 Bool) (temp___do_typ_inv_1654 Bool)) Bool
  (and
    (has_bounds3 temp___expr_1655 0 2)
    (forall ((temp___1656 Int))
      (=>
        (and (<= 0 temp___1656) (<= temp___1656 2))
        (has_bounds2 (get2 temp___expr_1655 temp___1656) 0 255)))))

(declare-sort tinteger_32B 0)

;; "tinteger_32B'int"
(declare-fun tinteger_32Bqtint (tinteger_32B) Int)

;; "tinteger_32B'axiom"
(assert
  (forall ((i tinteger_32B))
    (and
      (<= (- 2147483648) (tinteger_32Bqtint i))
      (<= (tinteger_32Bqtint i) 2147483647))))

;; "in_range"
(define-fun in_range2 ((x Int)) Bool
  (and (<= (- 2147483648) x) (<= x 2147483647)))

;; "to_rep"
(define-fun to_rep2 ((x tinteger_32B)) Int
  (tinteger_32Bqtint x))

;; "of_rep"
(declare-fun of_rep2 (Int) tinteger_32B)

;; "inversion_axiom"
(assert
  (forall ((x tinteger_32B))
    (! (= (of_rep2 (to_rep2 x)) x) :pattern ((to_rep2 x)) )))

;; "range_axiom"
(assert
  (forall ((x tinteger_32B))
    (! (in_range2 (to_rep2 x)) :pattern ((to_rep2 x)) )))

;; "coerce_axiom"
(assert
  (forall ((x Int))
    (! (=> (in_range2 x) (= (to_rep2 (of_rep2 x)) x)) :pattern ((to_rep2
                                                                  (of_rep2 x))) )))

(declare-datatypes ((t 0))
  (((tqtmk (rec__first tinteger_32B)(rec__last tinteger_32B)))))

;; "mk"
(declare-fun mk (Int
  Int) t)

;; "mk_def"
(assert
  (forall ((f1 Int) (l Int))
    (! (=>
         (in_range2 f1)
         (=>
           (in_range2 l)
           (and
             (= (to_rep2 (rec__first (mk f1 l))) f1)
             (= (to_rep2 (rec__last (mk f1 l))) l)))) :pattern ((mk f1 l)) )))

(declare-datatypes ((us_t 0))
  (((us_tqtmk (elts map2)(rt t)))))

;; "of_array"
(define-fun of_array ((a map2) (f1 Int) (l Int)) us_t
  (us_tqtmk a (mk f1 l)))

;; "first"
(define-fun first ((a us_t)) Int
  (to_rep2 (rec__first (rt a))))

;; "last"
(define-fun last ((a us_t)) Int
  (to_rep2 (rec__last (rt a))))

;; Goal "def'vc"
;; File "mlkem.adb", line 812, characters 0-0
(assert
  (not
  (forall ((r map2))
    (=>
      (dynamic_invariant f true false true true)
      (=>
        (has_bounds1 r 0 959)
        (=>
          (= 320 c)
          (=>
            (in_range1 c)
            (forall ((i Int))
              (=>
                (= i 0)
                (=>
                  (= (and (ite (<= 0 i) true false) (ite (<= i 2) true false)) true)
                  (let ((o (get2 f i)))
                    (let ((temp___4252 (byteencodedu o)))
                      (=>
                        (and
                          (byteencodedu__function_guard temp___4252 o)
                          (has_bounds temp___4252 0 319))
                        (=>
                          (ite (<= 0 319)
                            (and
                              (<= (* i 320) (- (* (+ i 1) 320) 1))
                              (= (- 319 0) (- (- (* (+ i 1) 320) 1) (* i 320))))
                            (< (- (* (+ i 1) 320) 1) (* i 320)))
                          (let ((temp___4254 (of_array
                                               (convert
                                                 (slide
                                                   temp___4252
                                                   0
                                                   (* i 320)))
                                               (* i 320)
                                               (- (* (+ i 1) 320) 1))))
                            (let ((temp___4258 (- (* (+ i 1) 320) 1)))
                              (let ((temp___4257 (* i 320)))
                                (=>
                                  (=>
                                    (<= temp___4257 temp___4258)
                                    (and
                                      (and
                                        (<= 0 temp___4257)
                                        (<= temp___4257 959))
                                      (and
                                        (<= 0 temp___4258)
                                        (<= temp___4258 959))))
                                  (let ((temp___4259 (of_array
                                                       (slice
                                                         r
                                                         temp___4257
                                                         temp___4258)
                                                       temp___4257
                                                       temp___4258)))
                                    (=>
                                      (ite (<= (first temp___4254) (last
                                                                    temp___4254))
                                        (and
                                          (<= (first temp___4259) (last
                                                                    temp___4259))
                                          (= (- (last temp___4254) (first
                                                                    temp___4254)) (- 
                                          (last
                                            temp___4259) (first temp___4259))))
                                        (< (last temp___4259) (first
                                                                temp___4259)))
                                      (let ((temp___4262 (* i 320)))
                                        (=>
                                          (<= temp___4262 (- (* (+ i 1) 320) 1))
                                          (and
                                            (<= 0 temp___4262)
                                            (<= temp___4262 959))))))))))))))))))))))))

(check-sat)
